p cnf 7230 17
-5617 5952 -5956 0
5959 -5960 0
-4994 -5829 5957 0
4994 -5958 0
-5957 5958 0
5953 5954 0
5805 -5954 0
-5805 -5953 0
5829 -5958 0
5955 5956 0
5807 -5956 0
-5807 -5955 0
-5627 -5783 5960 0
-5951 -5952 0
5951 5952 0
5783 -5960 0
5627 -5960 0
